c PEQNP - www.peqnp.science
c contact@peqnp.science
c pip install PEQNP --upgrade
p cnf 51 157
-1 -2 -3 0
-1 -4 0
1 4 0
4 5 0
-4 -5 0
-6 5 0
6 -5 0
-2 -7 0
2 7 0
-6 7 8 0
-7 -8 0
6 -8 0
-9 8 0
9 -8 0
-3 -10 0
3 10 0
-9 10 0
-11 -12 -13 0
-11 -14 0
11 14 0
14 15 0
-14 -15 0
-16 15 0
16 -15 0
-12 -17 0
12 17 0
-16 17 18 0
-17 -18 0
16 -18 0
-19 18 0
19 -18 0
-13 -20 0
13 20 0
-19 20 0
-11 21 0
11 -21 0
-12 22 0
12 -22 0
-13 23 0
13 -23 0
-1 24 0
1 -24 0
-1 -11 25 0
11 -25 0
1 -25 0
-1 -12 26 0
12 -26 0
1 -26 0
-1 -13 0
-2 27 0
2 -27 0
-2 -11 28 0
11 -28 0
2 -28 0
-2 -12 0
-2 -13 0
-3 29 0
3 -29 0
-3 -11 0
-3 -12 0
-3 -13 0
21 24 0
-21 -24 0
-21 -24 30 0
21 -30 0
24 -30 0
22 25 -31 30 0
22 -25 -31 -30 0
22 -25 31 30 0
22 25 31 -30 0
-22 25 31 30 0
-22 -25 31 -30 0
-22 -25 -31 30 0
-22 25 -31 -30 0
22 25 -32 0
22 30 -32 0
22 -25 -30 32 0
-22 25 30 -32 0
-22 -25 32 0
-22 -30 32 0
23 26 -33 32 0
23 -26 -33 -32 0
23 -26 33 32 0
23 26 33 -32 0
-23 26 33 32 0
-23 -26 33 -32 0
-23 -26 -33 32 0
-23 26 -33 -32 0
23 -26 -32 0
-23 -26 0
-23 -32 0
27 31 0
-27 -31 0
-27 -31 34 0
31 -34 0
27 -34 0
28 33 -35 34 0
-28 33 -35 -34 0
-28 33 35 34 0
28 33 35 -34 0
28 -33 35 34 0
-28 -33 35 -34 0
-28 -33 -35 34 0
28 -33 -35 -34 0
-28 33 -34 0
-28 -33 0
-33 -34 0
29 35 0
-29 -35 0
-29 -35 0
1 -36 0
-1 36 0
36 37 0
-36 -37 0
-38 37 0
38 -37 0
2 -39 0
-2 39 0
-38 39 40 0
-39 -40 0
38 -40 0
-41 40 0
41 -40 0
3 -42 0
-3 42 0
-41 42 0
-1 11 43 0
-11 -43 0
1 -43 0
1 11 -44 0
-1 -11 -44 0
-1 11 44 0
1 -11 44 0
44 45 0
-44 -45 0
-46 43 45 0
46 -43 0
46 -45 0
-2 12 47 0
-12 -47 0
2 -47 0
2 12 -48 0
-2 -12 -48 0
-2 12 48 0
2 -12 48 0
-46 48 49 0
-48 -49 0
46 -49 0
-50 47 49 0
50 -47 0
50 -49 0
-3 13 0
3 13 -51 0
-3 -13 -51 0
-3 13 51 0
3 -13 51 0
-50 51 0
c {'_31cc572aa0ca4dc9b9cba69e4ca5b364': [2, 3, 4, 5], '_6f222eeb529b4cecaadfb345e7285fa1': [22, 23, 24, 25]}
c [-1, 2, 3, -4, -5, 6, 7, 8, 9, -10, 11, 12, -13, -14, 15, -16, 17, -18, -19, 20, -21, 22, -23, 24, -25, -26, -27, 28, -29, 30, -31, -32, -33, -34, -35, 36, -37, 38, 39, 40, 41, -42, 43, -44, 45, -46, 47, -48, -49, -50, -51, -52, -53, -54, -55, -56, 57, 58, 59, -60, -61, -62, -63, -64, -65, -66, -67, -68, -69, 70, -71, -72, -73, -74, -75, 76, -77, 78, -79, -80, -81, -82, -83, -84, -85, -86, 87, 88, 89, 90, -91, -92, 93, -94, -95, -96, -97, -98, -99, -100, -101, -102, -103, -104, -105, 106, -107, -108, -109, 110, -111, -112, -113, -114, -115, -116, -117, -118, -119, -120, -121, 122, -123, -124, -125, 126, -127, -128, -129, -130, -131, -132, -133]
